559
537
532
527
607
447
509
697
280
321
248
253
227
247
318
320
315
152
160
160
140
186
261
278
255
250
244
85
88
86
84
80
235
236
271
248
225
63
74
80
68
68
31
36
33
33
32
17
18
19
16
16
191
175
179
186
190
72
71
69
67
64
